NAME 
ROWS
 N  OBJ
 G  R0      
 G  R1      
 G  R2      
 G  R3      
 G  R4      
 G  R5      
 G  R6      
 G  R7      
 G  R8      
 G  R9      
 G  R10     
 G  R11     
 G  R12     
 G  R13     
 G  R14     
 G  R15     
 G  R16     
 G  R17     
 G  R18     
 G  R19     
 G  R20     
 G  R21     
 G  R22     
 G  R23     
 G  R24     
 G  R25     
 G  R26     
 G  R27     
 G  R28     
 G  R29     
 G  R30     
 G  R31     
 G  R32     
 G  R33     
 G  R34     
 G  R35     
 G  R36     
 G  R37     
 G  R38     
 G  R39     
 G  R40     
 G  R41     
 G  R42     
 G  R43     
 G  R44     
 G  R45     
 G  R46     
 G  R47     
 G  R48     
 G  R49     
 G  R50     
 G  R51     
 G  R52     
 G  R53     
 G  R54     
 G  R55     
 G  R56     
 G  R57     
 G  R58     
 G  R59     
 G  R60     
 G  R61     
 G  R62     
 G  R63     
 G  R64     
 G  R65     
 G  R66     
 G  R67     
 G  R68     
 G  R69     
 G  R70     
 G  R71     
 G  R72     
 G  R73     
 G  R74     
 G  R75     
 G  R76     
 G  R77     
 G  R78     
 G  R79     
 G  R80     
 G  R81     
 G  R82     
 G  R83     
 G  R84     
 G  R85     
 G  R86     
 G  R87     
 G  R88     
 G  R89     
 G  R90     
 G  R91     
 G  R92     
 G  R93     
 G  R94     
 G  R95     
COLUMNS
    x0        OBJ       1
    x0        R0        1
    x0        R1        1
    x0        R2        1
    x0        R3        1
    x0        R6        1
    x0        R12       1
    x0        R24       1
    x0        R48       1
    x1        OBJ       1
    x1        R0        1
    x1        R1        1
    x1        R2        1
    x1        R4        1
    x1        R7        1
    x1        R13       1
    x1        R25       1
    x1        R49       1
    x2        OBJ       1
    x2        R0        1
    x2        R1        1
    x2        R2        1
    x2        R5        1
    x2        R8        1
    x2        R14       1
    x2        R26       1
    x2        R50       1
    x3        OBJ       1
    x3        R0        1
    x3        R3        1
    x3        R4        1
    x3        R5        1
    x3        R9        1
    x3        R15       1
    x3        R27       1
    x3        R51       1
    x4        OBJ       1
    x4        R1        1
    x4        R3        1
    x4        R4        1
    x4        R5        1
    x4        R10       1
    x4        R16       1
    x4        R28       1
    x4        R52       1
    x5        OBJ       1
    x5        R2        1
    x5        R3        1
    x5        R4        1
    x5        R5        1
    x5        R11       1
    x5        R17       1
    x5        R29       1
    x5        R53       1
    x6        OBJ       1
    x6        R0        1
    x6        R6        1
    x6        R7        1
    x6        R8        1
    x6        R9        1
    x6        R18       1
    x6        R30       1
    x6        R54       1
    x7        OBJ       1
    x7        R1        1
    x7        R6        1
    x7        R7        1
    x7        R8        1
    x7        R10       1
    x7        R19       1
    x7        R31       1
    x7        R55       1
    x8        OBJ       1
    x8        R2        1
    x8        R6        1
    x8        R7        1
    x8        R8        1
    x8        R11       1
    x8        R20       1
    x8        R32       1
    x8        R56       1
    x9        OBJ       1
    x9        R3        1
    x9        R6        1
    x9        R9        1
    x9        R10       1
    x9        R11       1
    x9        R21       1
    x9        R33       1
    x9        R57       1
    x10       OBJ       1
    x10       R4        1
    x10       R7        1
    x10       R9        1
    x10       R10       1
    x10       R11       1
    x10       R22       1
    x10       R34       1
    x10       R58       1
    x11       OBJ       1
    x11       R5        1
    x11       R8        1
    x11       R9        1
    x11       R10       1
    x11       R11       1
    x11       R23       1
    x11       R35       1
    x11       R59       1
    x12       OBJ       1
    x12       R0        1
    x12       R12       1
    x12       R13       1
    x12       R14       1
    x12       R15       1
    x12       R18       1
    x12       R36       1
    x12       R60       1
    x13       OBJ       1
    x13       R1        1
    x13       R12       1
    x13       R13       1
    x13       R14       1
    x13       R16       1
    x13       R19       1
    x13       R37       1
    x13       R61       1
    x14       OBJ       1
    x14       R2        1
    x14       R12       1
    x14       R13       1
    x14       R14       1
    x14       R17       1
    x14       R20       1
    x14       R38       1
    x14       R62       1
    x15       OBJ       1
    x15       R3        1
    x15       R12       1
    x15       R15       1
    x15       R16       1
    x15       R17       1
    x15       R21       1
    x15       R39       1
    x15       R63       1
    x16       OBJ       1
    x16       R4        1
    x16       R13       1
    x16       R15       1
    x16       R16       1
    x16       R17       1
    x16       R22       1
    x16       R40       1
    x16       R64       1
    x17       OBJ       1
    x17       R5        1
    x17       R14       1
    x17       R15       1
    x17       R16       1
    x17       R17       1
    x17       R23       1
    x17       R41       1
    x17       R65       1
    x18       OBJ       1
    x18       R6        1
    x18       R12       1
    x18       R18       1
    x18       R19       1
    x18       R20       1
    x18       R21       1
    x18       R42       1
    x18       R66       1
    x19       OBJ       1
    x19       R7        1
    x19       R13       1
    x19       R18       1
    x19       R19       1
    x19       R20       1
    x19       R22       1
    x19       R43       1
    x19       R67       1
    x20       OBJ       1
    x20       R8        1
    x20       R14       1
    x20       R18       1
    x20       R19       1
    x20       R20       1
    x20       R23       1
    x20       R44       1
    x20       R68       1
    x21       OBJ       1
    x21       R9        1
    x21       R15       1
    x21       R18       1
    x21       R21       1
    x21       R22       1
    x21       R23       1
    x21       R45       1
    x21       R69       1
    x22       OBJ       1
    x22       R10       1
    x22       R16       1
    x22       R19       1
    x22       R21       1
    x22       R22       1
    x22       R23       1
    x22       R46       1
    x22       R70       1
    x23       OBJ       1
    x23       R11       1
    x23       R17       1
    x23       R20       1
    x23       R21       1
    x23       R22       1
    x23       R23       1
    x23       R47       1
    x23       R71       1
    x24       OBJ       1
    x24       R0        1
    x24       R24       1
    x24       R25       1
    x24       R26       1
    x24       R27       1
    x24       R30       1
    x24       R36       1
    x24       R72       1
    x25       OBJ       1
    x25       R1        1
    x25       R24       1
    x25       R25       1
    x25       R26       1
    x25       R28       1
    x25       R31       1
    x25       R37       1
    x25       R73       1
    x26       OBJ       1
    x26       R2        1
    x26       R24       1
    x26       R25       1
    x26       R26       1
    x26       R29       1
    x26       R32       1
    x26       R38       1
    x26       R74       1
    x27       OBJ       1
    x27       R3        1
    x27       R24       1
    x27       R27       1
    x27       R28       1
    x27       R29       1
    x27       R33       1
    x27       R39       1
    x27       R75       1
    x28       OBJ       1
    x28       R4        1
    x28       R25       1
    x28       R27       1
    x28       R28       1
    x28       R29       1
    x28       R34       1
    x28       R40       1
    x28       R76       1
    x29       OBJ       1
    x29       R5        1
    x29       R26       1
    x29       R27       1
    x29       R28       1
    x29       R29       1
    x29       R35       1
    x29       R41       1
    x29       R77       1
    x30       OBJ       1
    x30       R6        1
    x30       R24       1
    x30       R30       1
    x30       R31       1
    x30       R32       1
    x30       R33       1
    x30       R42       1
    x30       R78       1
    x31       OBJ       1
    x31       R7        1
    x31       R25       1
    x31       R30       1
    x31       R31       1
    x31       R32       1
    x31       R34       1
    x31       R43       1
    x31       R79       1
    x32       OBJ       1
    x32       R8        1
    x32       R26       1
    x32       R30       1
    x32       R31       1
    x32       R32       1
    x32       R35       1
    x32       R44       1
    x32       R80       1
    x33       OBJ       1
    x33       R9        1
    x33       R27       1
    x33       R30       1
    x33       R33       1
    x33       R34       1
    x33       R35       1
    x33       R45       1
    x33       R81       1
    x34       OBJ       1
    x34       R10       1
    x34       R28       1
    x34       R31       1
    x34       R33       1
    x34       R34       1
    x34       R35       1
    x34       R46       1
    x34       R82       1
    x35       OBJ       1
    x35       R11       1
    x35       R29       1
    x35       R32       1
    x35       R33       1
    x35       R34       1
    x35       R35       1
    x35       R47       1
    x35       R83       1
    x36       OBJ       1
    x36       R12       1
    x36       R24       1
    x36       R36       1
    x36       R37       1
    x36       R38       1
    x36       R39       1
    x36       R42       1
    x36       R84       1
    x37       OBJ       1
    x37       R13       1
    x37       R25       1
    x37       R36       1
    x37       R37       1
    x37       R38       1
    x37       R40       1
    x37       R43       1
    x37       R85       1
    x38       OBJ       1
    x38       R14       1
    x38       R26       1
    x38       R36       1
    x38       R37       1
    x38       R38       1
    x38       R41       1
    x38       R44       1
    x38       R86       1
    x39       OBJ       1
    x39       R15       1
    x39       R27       1
    x39       R36       1
    x39       R39       1
    x39       R40       1
    x39       R41       1
    x39       R45       1
    x39       R87       1
    x40       OBJ       1
    x40       R16       1
    x40       R28       1
    x40       R37       1
    x40       R39       1
    x40       R40       1
    x40       R41       1
    x40       R46       1
    x40       R88       1
    x41       OBJ       1
    x41       R17       1
    x41       R29       1
    x41       R38       1
    x41       R39       1
    x41       R40       1
    x41       R41       1
    x41       R47       1
    x41       R89       1
    x42       OBJ       1
    x42       R18       1
    x42       R30       1
    x42       R36       1
    x42       R42       1
    x42       R43       1
    x42       R44       1
    x42       R45       1
    x42       R90       1
    x43       OBJ       1
    x43       R19       1
    x43       R31       1
    x43       R37       1
    x43       R42       1
    x43       R43       1
    x43       R44       1
    x43       R46       1
    x43       R91       1
    x44       OBJ       1
    x44       R20       1
    x44       R32       1
    x44       R38       1
    x44       R42       1
    x44       R43       1
    x44       R44       1
    x44       R47       1
    x44       R92       1
    x45       OBJ       1
    x45       R21       1
    x45       R33       1
    x45       R39       1
    x45       R42       1
    x45       R45       1
    x45       R46       1
    x45       R47       1
    x45       R93       1
    x46       OBJ       1
    x46       R22       1
    x46       R34       1
    x46       R40       1
    x46       R43       1
    x46       R45       1
    x46       R46       1
    x46       R47       1
    x46       R94       1
    x47       OBJ       1
    x47       R23       1
    x47       R35       1
    x47       R41       1
    x47       R44       1
    x47       R45       1
    x47       R46       1
    x47       R47       1
    x47       R95       1
    x48       OBJ       1
    x48       R0        1
    x48       R48       1
    x48       R49       1
    x48       R50       1
    x48       R51       1
    x48       R54       1
    x48       R60       1
    x48       R72       1
    x49       OBJ       1
    x49       R1        1
    x49       R48       1
    x49       R49       1
    x49       R50       1
    x49       R52       1
    x49       R55       1
    x49       R61       1
    x49       R73       1
    x50       OBJ       1
    x50       R2        1
    x50       R48       1
    x50       R49       1
    x50       R50       1
    x50       R53       1
    x50       R56       1
    x50       R62       1
    x50       R74       1
    x51       OBJ       1
    x51       R3        1
    x51       R48       1
    x51       R51       1
    x51       R52       1
    x51       R53       1
    x51       R57       1
    x51       R63       1
    x51       R75       1
    x52       OBJ       1
    x52       R4        1
    x52       R49       1
    x52       R51       1
    x52       R52       1
    x52       R53       1
    x52       R58       1
    x52       R64       1
    x52       R76       1
    x53       OBJ       1
    x53       R5        1
    x53       R50       1
    x53       R51       1
    x53       R52       1
    x53       R53       1
    x53       R59       1
    x53       R65       1
    x53       R77       1
    x54       OBJ       1
    x54       R6        1
    x54       R48       1
    x54       R54       1
    x54       R55       1
    x54       R56       1
    x54       R57       1
    x54       R66       1
    x54       R78       1
    x55       OBJ       1
    x55       R7        1
    x55       R49       1
    x55       R54       1
    x55       R55       1
    x55       R56       1
    x55       R58       1
    x55       R67       1
    x55       R79       1
    x56       OBJ       1
    x56       R8        1
    x56       R50       1
    x56       R54       1
    x56       R55       1
    x56       R56       1
    x56       R59       1
    x56       R68       1
    x56       R80       1
    x57       OBJ       1
    x57       R9        1
    x57       R51       1
    x57       R54       1
    x57       R57       1
    x57       R58       1
    x57       R59       1
    x57       R69       1
    x57       R81       1
    x58       OBJ       1
    x58       R10       1
    x58       R52       1
    x58       R55       1
    x58       R57       1
    x58       R58       1
    x58       R59       1
    x58       R70       1
    x58       R82       1
    x59       OBJ       1
    x59       R11       1
    x59       R53       1
    x59       R56       1
    x59       R57       1
    x59       R58       1
    x59       R59       1
    x59       R71       1
    x59       R83       1
    x60       OBJ       1
    x60       R12       1
    x60       R48       1
    x60       R60       1
    x60       R61       1
    x60       R62       1
    x60       R63       1
    x60       R66       1
    x60       R84       1
    x61       OBJ       1
    x61       R13       1
    x61       R49       1
    x61       R60       1
    x61       R61       1
    x61       R62       1
    x61       R64       1
    x61       R67       1
    x61       R85       1
    x62       OBJ       1
    x62       R14       1
    x62       R50       1
    x62       R60       1
    x62       R61       1
    x62       R62       1
    x62       R65       1
    x62       R68       1
    x62       R86       1
    x63       OBJ       1
    x63       R15       1
    x63       R51       1
    x63       R60       1
    x63       R63       1
    x63       R64       1
    x63       R65       1
    x63       R69       1
    x63       R87       1
    x64       OBJ       1
    x64       R16       1
    x64       R52       1
    x64       R61       1
    x64       R63       1
    x64       R64       1
    x64       R65       1
    x64       R70       1
    x64       R88       1
    x65       OBJ       1
    x65       R17       1
    x65       R53       1
    x65       R62       1
    x65       R63       1
    x65       R64       1
    x65       R65       1
    x65       R71       1
    x65       R89       1
    x66       OBJ       1
    x66       R18       1
    x66       R54       1
    x66       R60       1
    x66       R66       1
    x66       R67       1
    x66       R68       1
    x66       R69       1
    x66       R90       1
    x67       OBJ       1
    x67       R19       1
    x67       R55       1
    x67       R61       1
    x67       R66       1
    x67       R67       1
    x67       R68       1
    x67       R70       1
    x67       R91       1
    x68       OBJ       1
    x68       R20       1
    x68       R56       1
    x68       R62       1
    x68       R66       1
    x68       R67       1
    x68       R68       1
    x68       R71       1
    x68       R92       1
    x69       OBJ       1
    x69       R21       1
    x69       R57       1
    x69       R63       1
    x69       R66       1
    x69       R69       1
    x69       R70       1
    x69       R71       1
    x69       R93       1
    x70       OBJ       1
    x70       R22       1
    x70       R58       1
    x70       R64       1
    x70       R67       1
    x70       R69       1
    x70       R70       1
    x70       R71       1
    x70       R94       1
    x71       OBJ       1
    x71       R23       1
    x71       R59       1
    x71       R65       1
    x71       R68       1
    x71       R69       1
    x71       R70       1
    x71       R71       1
    x71       R95       1
    x72       OBJ       1
    x72       R24       1
    x72       R48       1
    x72       R72       1
    x72       R73       1
    x72       R74       1
    x72       R75       1
    x72       R78       1
    x72       R84       1
    x73       OBJ       1
    x73       R25       1
    x73       R49       1
    x73       R72       1
    x73       R73       1
    x73       R74       1
    x73       R76       1
    x73       R79       1
    x73       R85       1
    x74       OBJ       1
    x74       R26       1
    x74       R50       1
    x74       R72       1
    x74       R73       1
    x74       R74       1
    x74       R77       1
    x74       R80       1
    x74       R86       1
    x75       OBJ       1
    x75       R27       1
    x75       R51       1
    x75       R72       1
    x75       R75       1
    x75       R76       1
    x75       R77       1
    x75       R81       1
    x75       R87       1
    x76       OBJ       1
    x76       R28       1
    x76       R52       1
    x76       R73       1
    x76       R75       1
    x76       R76       1
    x76       R77       1
    x76       R82       1
    x76       R88       1
    x77       OBJ       1
    x77       R29       1
    x77       R53       1
    x77       R74       1
    x77       R75       1
    x77       R76       1
    x77       R77       1
    x77       R83       1
    x77       R89       1
    x78       OBJ       1
    x78       R30       1
    x78       R54       1
    x78       R72       1
    x78       R78       1
    x78       R79       1
    x78       R80       1
    x78       R81       1
    x78       R90       1
    x79       OBJ       1
    x79       R31       1
    x79       R55       1
    x79       R73       1
    x79       R78       1
    x79       R79       1
    x79       R80       1
    x79       R82       1
    x79       R91       1
    x80       OBJ       1
    x80       R32       1
    x80       R56       1
    x80       R74       1
    x80       R78       1
    x80       R79       1
    x80       R80       1
    x80       R83       1
    x80       R92       1
    x81       OBJ       1
    x81       R33       1
    x81       R57       1
    x81       R75       1
    x81       R78       1
    x81       R81       1
    x81       R82       1
    x81       R83       1
    x81       R93       1
    x82       OBJ       1
    x82       R34       1
    x82       R58       1
    x82       R76       1
    x82       R79       1
    x82       R81       1
    x82       R82       1
    x82       R83       1
    x82       R94       1
    x83       OBJ       1
    x83       R35       1
    x83       R59       1
    x83       R77       1
    x83       R80       1
    x83       R81       1
    x83       R82       1
    x83       R83       1
    x83       R95       1
    x84       OBJ       1
    x84       R36       1
    x84       R60       1
    x84       R72       1
    x84       R84       1
    x84       R85       1
    x84       R86       1
    x84       R87       1
    x84       R90       1
    x85       OBJ       1
    x85       R37       1
    x85       R61       1
    x85       R73       1
    x85       R84       1
    x85       R85       1
    x85       R86       1
    x85       R88       1
    x85       R91       1
    x86       OBJ       1
    x86       R38       1
    x86       R62       1
    x86       R74       1
    x86       R84       1
    x86       R85       1
    x86       R86       1
    x86       R89       1
    x86       R92       1
    x87       OBJ       1
    x87       R39       1
    x87       R63       1
    x87       R75       1
    x87       R84       1
    x87       R87       1
    x87       R88       1
    x87       R89       1
    x87       R93       1
    x88       OBJ       1
    x88       R40       1
    x88       R64       1
    x88       R76       1
    x88       R85       1
    x88       R87       1
    x88       R88       1
    x88       R89       1
    x88       R94       1
    x89       OBJ       1
    x89       R41       1
    x89       R65       1
    x89       R77       1
    x89       R86       1
    x89       R87       1
    x89       R88       1
    x89       R89       1
    x89       R95       1
    x90       OBJ       1
    x90       R42       1
    x90       R66       1
    x90       R78       1
    x90       R84       1
    x90       R90       1
    x90       R91       1
    x90       R92       1
    x90       R93       1
    x91       OBJ       1
    x91       R43       1
    x91       R67       1
    x91       R79       1
    x91       R85       1
    x91       R90       1
    x91       R91       1
    x91       R92       1
    x91       R94       1
    x92       OBJ       1
    x92       R44       1
    x92       R68       1
    x92       R80       1
    x92       R86       1
    x92       R90       1
    x92       R91       1
    x92       R92       1
    x92       R95       1
    x93       OBJ       1
    x93       R45       1
    x93       R69       1
    x93       R81       1
    x93       R87       1
    x93       R90       1
    x93       R93       1
    x93       R94       1
    x93       R95       1
    x94       OBJ       1
    x94       R46       1
    x94       R70       1
    x94       R82       1
    x94       R88       1
    x94       R91       1
    x94       R93       1
    x94       R94       1
    x94       R95       1
    x95       OBJ       1
    x95       R47       1
    x95       R71       1
    x95       R83       1
    x95       R89       1
    x95       R92       1
    x95       R93       1
    x95       R94       1
    x95       R95       1
RHS
    RHS1      R0        1
    RHS1      R1        1
    RHS1      R2        1
    RHS1      R3        1
    RHS1      R4        1
    RHS1      R5        1
    RHS1      R6        1
    RHS1      R7        1
    RHS1      R8        1
    RHS1      R9        1
    RHS1      R10       1
    RHS1      R11       1
    RHS1      R12       1
    RHS1      R13       1
    RHS1      R14       1
    RHS1      R15       1
    RHS1      R16       1
    RHS1      R17       1
    RHS1      R18       1
    RHS1      R19       1
    RHS1      R20       1
    RHS1      R21       1
    RHS1      R22       1
    RHS1      R23       1
    RHS1      R24       1
    RHS1      R25       1
    RHS1      R26       1
    RHS1      R27       1
    RHS1      R28       1
    RHS1      R29       1
    RHS1      R30       1
    RHS1      R31       1
    RHS1      R32       1
    RHS1      R33       1
    RHS1      R34       1
    RHS1      R35       1
    RHS1      R36       1
    RHS1      R37       1
    RHS1      R38       1
    RHS1      R39       1
    RHS1      R40       1
    RHS1      R41       1
    RHS1      R42       1
    RHS1      R43       1
    RHS1      R44       1
    RHS1      R45       1
    RHS1      R46       1
    RHS1      R47       1
    RHS1      R48       1
    RHS1      R49       1
    RHS1      R50       1
    RHS1      R51       1
    RHS1      R52       1
    RHS1      R53       1
    RHS1      R54       1
    RHS1      R55       1
    RHS1      R56       1
    RHS1      R57       1
    RHS1      R58       1
    RHS1      R59       1
    RHS1      R60       1
    RHS1      R61       1
    RHS1      R62       1
    RHS1      R63       1
    RHS1      R64       1
    RHS1      R65       1
    RHS1      R66       1
    RHS1      R67       1
    RHS1      R68       1
    RHS1      R69       1
    RHS1      R70       1
    RHS1      R71       1
    RHS1      R72       1
    RHS1      R73       1
    RHS1      R74       1
    RHS1      R75       1
    RHS1      R76       1
    RHS1      R77       1
    RHS1      R78       1
    RHS1      R79       1
    RHS1      R80       1
    RHS1      R81       1
    RHS1      R82       1
    RHS1      R83       1
    RHS1      R84       1
    RHS1      R85       1
    RHS1      R86       1
    RHS1      R87       1
    RHS1      R88       1
    RHS1      R89       1
    RHS1      R90       1
    RHS1      R91       1
    RHS1      R92       1
    RHS1      R93       1
    RHS1      R94       1
    RHS1      R95       1
BOUNDS
 UP BND1      x0        1
 UP BND1      x1        1
 UP BND1      x2        1
 UP BND1      x3        1
 UP BND1      x4        1
 UP BND1      x5        1
 UP BND1      x6        1
 UP BND1      x7        1
 UP BND1      x8        1
 UP BND1      x9        1
 UP BND1      x10       1
 UP BND1      x11       1
 UP BND1      x12       1
 UP BND1      x13       1
 UP BND1      x14       1
 UP BND1      x15       1
 UP BND1      x16       1
 UP BND1      x17       1
 UP BND1      x18       1
 UP BND1      x19       1
 UP BND1      x20       1
 UP BND1      x21       1
 UP BND1      x22       1
 UP BND1      x23       1
 UP BND1      x24       1
 UP BND1      x25       1
 UP BND1      x26       1
 UP BND1      x27       1
 UP BND1      x28       1
 UP BND1      x29       1
 UP BND1      x30       1
 UP BND1      x31       1
 UP BND1      x32       1
 UP BND1      x33       1
 UP BND1      x34       1
 UP BND1      x35       1
 UP BND1      x36       1
 UP BND1      x37       1
 UP BND1      x38       1
 UP BND1      x39       1
 UP BND1      x40       1
 UP BND1      x41       1
 UP BND1      x42       1
 UP BND1      x43       1
 UP BND1      x44       1
 UP BND1      x45       1
 UP BND1      x46       1
 UP BND1      x47       1
 UP BND1      x48       1
 UP BND1      x49       1
 UP BND1      x50       1
 UP BND1      x51       1
 UP BND1      x52       1
 UP BND1      x53       1
 UP BND1      x54       1
 UP BND1      x55       1
 UP BND1      x56       1
 UP BND1      x57       1
 UP BND1      x58       1
 UP BND1      x59       1
 UP BND1      x60       1
 UP BND1      x61       1
 UP BND1      x62       1
 UP BND1      x63       1
 UP BND1      x64       1
 UP BND1      x65       1
 UP BND1      x66       1
 UP BND1      x67       1
 UP BND1      x68       1
 UP BND1      x69       1
 UP BND1      x70       1
 UP BND1      x71       1
 UP BND1      x72       1
 UP BND1      x73       1
 UP BND1      x74       1
 UP BND1      x75       1
 UP BND1      x76       1
 UP BND1      x77       1
 UP BND1      x78       1
 UP BND1      x79       1
 UP BND1      x80       1
 UP BND1      x81       1
 UP BND1      x82       1
 UP BND1      x83       1
 UP BND1      x84       1
 UP BND1      x85       1
 UP BND1      x86       1
 UP BND1      x87       1
 UP BND1      x88       1
 UP BND1      x89       1
 UP BND1      x90       1
 UP BND1      x91       1
 UP BND1      x92       1
 UP BND1      x93       1
 UP BND1      x94       1
 UP BND1      x95       1
ENDATA
